(set-logic QF_S)
(declare-fun V29 () String )
(declare-fun V34 () String )
(declare-fun V33 () String )
(declare-fun V57 () String )
(declare-fun V18 () String )
(declare-fun V36 () String )
(declare-fun V3 () String )
(declare-fun V42 () String )
(declare-fun V40 () String )
(declare-fun V55 () String )
(declare-fun V52 () String )
(declare-fun V4 () String )
(declare-fun V66 () String )
(declare-fun V7 () String )
(declare-fun V51 () String )
(declare-fun V68 () String )
(declare-fun V27 () String )
(declare-fun V63 () String )
(declare-fun V44 () String )
(declare-fun V32 () String )
(declare-fun V65 () String )
(declare-fun V50 () String )
(declare-fun V8 () String )
(declare-fun V17 () String )
(declare-fun V38 () String )
(declare-fun V11 () String )
(declare-fun V20 () String )
(declare-fun V41 () String )
(declare-fun V25 () String )
(declare-fun V54 () String )
(declare-fun V23 () String )
(declare-fun V59 () String )
(declare-fun V49 () String )
(declare-fun V62 () String )
(declare-fun V2 () String )
(declare-fun V24 () String )
(declare-fun V15 () String )
(declare-fun V61 () String )
(declare-fun V28 () String )
(declare-fun V43 () String )
(declare-fun V16 () String )
(declare-fun V19 () String )
(declare-fun V13 () String )
(declare-fun V1 () String )
(declare-fun V60 () String )
(declare-fun V64 () String )
(declare-fun V9 () String )
(declare-fun V47 () String )
(declare-fun V48 () String )
(declare-fun V58 () String )
(declare-fun V10 () String )
(declare-fun V22 () String )
(declare-fun V45 () String )
(declare-fun V39 () String )
(declare-fun V12 () String )
(declare-fun V35 () String )
(declare-fun V14 () String )
(declare-fun V21 () String )
(declare-fun V6 () String )
(declare-fun V31 () String )
(declare-fun V0 () String )
(declare-fun V37 () String )
(declare-fun V5 () String )
(declare-fun V30 () String )
(declare-fun V53 () String )
(declare-fun V67 () String )
(declare-fun V26 () String )
(declare-fun V56 () String )
(declare-fun V46 () String )
(assert (= "" "W" ) )
(assert (= "" V39 ) )
(assert (= "" V42 ) )
(assert (= "" V36 ) )
(assert (= "" (str.++ (str.++ V41 V42 ) V43 ) ) )
(assert (= "," V5 ) )
(assert (= "/" V0 ) )
(assert (= ":" V10 ) )
(assert (= "W" V14 ) )
(assert (= "Z" V17 ) )
(assert (= V31 (str.++ (str.++ V38 V39 ) V40 ) ) )
(assert (= V2 (str.++ (str.++ V48 "@" ) V49 ) ) )
(assert (= V2 (str.++ (str.++ V67 "W" ) V68 ) ) )
(assert (= V2 (str.++ (str.++ V60 "Z" ) V61 ) ) )
(assert (= V2 (str.++ (str.++ V65 V66 ) V26 ) ) )
(assert (= V2 (str.++ (str.++ V55 V56 ) V26 ) ) )
(assert (= V2 (str.++ (str.++ V11 V15 ) V16 ) ) )
(assert (= V2 (str.++ (str.++ V11 V18 ) V19 ) ) )
(assert (= V2 (str.++ (str.++ V11 V20 ) V21 ) ) )
(assert (= V2 (str.++ (str.++ V11 V12 ) V13 ) ) )
(assert (= V2 (str.++ (str.++ V33 V34 ) V26 ) ) )
(assert (= V2 (str.++ (str.++ V25 V9 ) V26 ) ) )
(assert (= V19 V26 ) )
(assert (= V59 (str.++ "w" V15 ) ) )
(assert (= V59 (str.++ (str.++ V57 "w" ) V58 ) ) )
(assert (= V64 (str.++ "z" V18 ) ) )
(assert (= V64 (str.++ (str.++ V62 "z" ) V63 ) ) )
(assert (= V15 (str.++ (str.++ V57 "W" ) V58 ) ) )
(assert (= V18 (str.++ (str.++ V62 "Z" ) V63 ) ) )
(assert (= V34 (str.++ (str.++ V41 V42 ) V43 ) ) )
(assert (= V9 (str.++ (str.++ V46 "," ) V47 ) ) )
(assert (= V9 (str.++ (str.++ V6 V7 ) V8 ) ) )
(assert (= V9 (str.++ (str.++ V27 V28 ) V29 ) ) )
(assert (= V7 (str.++ (str.++ V35 V36 ) V37 ) ) )
(assert (= V7 (str.++ (str.++ V44 "F" ) V45 ) ) )
(assert (= V4 (str.++ (str.++ V30 V31 ) V32 ) ) )
(assert (= V4 (str.++ (str.++ V50 "/" ) V51 ) ) )
(assert (= V4 (str.++ (str.++ V1 V2 ) V3 ) ) )
(assert (= V24 (str.++ (str.++ V22 V4 ) V23 ) ) )
(assert (= V24 (str.++ (str.++ V53 "://" ) V54 ) ) )
(assert (= V24 (str.++ "mongodb://" V52 ) ) )
( check-sat )
